c preprocessed version of dimacs_queen12_12, 144 vertices, 1750 edges
p td 144 1750
0 84
0 105
0 121
0 137
0 10
0 26
0 42
0 111
0 58
0 74
0 90
0 96
0 108
0 120
0 132
0 3
0 15
0 27
0 39
0 1
0 24
0 60
0 72
0 103
0 117
0 131
0 5
0 19
0 33
0 48
0 13
0 62
0 76
1 101
1 116
1 98
1 112
1 125
1 138
1 9
1 22
1 36
1 49
1 13
1 24
1 60
1 99
1 114
1 128
1 142
1 16
1 30
1 44
1 122
1 58
1 73
1 87
56 52
56 68
56 83
56 46
56 63
56 76
56 67
56 78
56 89
56 100
56 111
56 122
56 133
56 2
56 51
56 65
56 80
67 53
67 69
67 85
67 51
67 64
67 77
67 78
67 89
67 100
67 111
67 122
67 133
67 2
67 52
67 66
67 81
78 54
78 70
78 86
78 52
78 65
78 79
78 89
78 100
78 111
78 122
78 133
78 2
78 53
78 68
78 82
89 55
89 71
89 87
89 53
89 66
89 80
89 100
89 111
89 122
89 133
89 2
89 54
89 69
89 83
100 57
100 73
100 88
100 54
100 68
100 81
100 111
100 122
100 133
100 2
100 55
100 70
100 85
111 58
111 74
111 90
111 55
111 69
111 82
111 122
111 133
111 2
111 57
111 71
111 86
122 59
122 75
122 57
122 70
122 83
122 133
122 2
122 58
122 73
122 87
133 61
133 58
133 71
133 85
133 2
133 59
133 74
133 88
2 59
2 73
2 86
2 61
2 75
2 90
13 63
13 79
13 35
13 46
13 51
13 52
13 53
13 54
13 55
13 57
13 58
13 59
13 61
13 62
13 76
24 102
24 99
24 113
24 126
24 139
24 10
24 23
24 37
24 50
24 35
24 62
24 60
24 101
24 115
24 129
24 143
24 17
24 31
24 45
24 59
24 74
24 88
35 64
35 80
35 62
35 46
35 51
35 52
35 53
35 54
35 55
35 57
35 58
35 59
35 61
35 63
35 77
46 65
46 81
46 63
46 76
46 51
46 52
46 53
46 54
46 55
46 57
46 58
46 59
46 61
46 64
46 79
51 66
51 82
51 64
51 77
51 52
51 53
51 54
51 55
51 57
51 58
51 59
51 61
51 65
51 80
52 68
52 83
52 65
52 79
52 53
52 54
52 55
52 57
52 58
52 59
52 61
52 66
52 81
53 69
53 85
53 66
53 80
53 54
53 55
53 57
53 58
53 59
53 61
53 68
53 82
54 70
54 86
54 68
54 81
54 55
54 57
54 58
54 59
54 61
54 69
54 83
55 71
55 87
55 69
55 82
55 57
55 58
55 59
55 61
55 70
55 85
57 73
57 88
57 70
57 83
57 58
57 59
57 61
57 71
57 86
58 74
58 90
58 71
58 85
58 59
58 61
58 73
58 87
59 75
59 73
59 86
59 61
59 74
59 88
60 101
60 114
60 127
60 140
60 11
60 25
60 38
60 63
60 76
60 102
60 116
60 130
60 4
60 18
60 32
60 47
60 61
60 75
60 90
61 74
61 87
61 75
61 90
62 77
62 63
62 64
62 65
62 66
62 68
62 69
62 70
62 71
62 73
62 74
62 75
62 76
63 79
63 76
63 64
63 65
63 66
63 68
63 69
63 70
63 71
63 73
63 74
63 75
63 77
64 80
64 77
64 65
64 66
64 68
64 69
64 70
64 71
64 73
64 74
64 75
64 79
65 81
65 79
65 66
65 68
65 69
65 70
65 71
65 73
65 74
65 75
65 80
66 82
66 80
66 68
66 69
66 70
66 71
66 73
66 74
66 75
66 81
68 83
68 81
68 69
68 70
68 71
68 73
68 74
68 75
68 82
69 85
69 82
69 70
69 71
69 73
69 74
69 75
69 83
70 86
70 83
70 71
70 73
70 74
70 75
70 85
71 87
71 85
71 73
71 74
71 75
71 86
72 104
72 119
72 136
72 9
72 25
72 41
72 73
72 88
72 84
72 91
72 92
72 93
72 94
72 95
72 97
72 98
72 99
72 101
72 102
72 103
72 117
72 131
72 5
72 19
72 33
72 48
72 76
73 88
73 86
73 74
73 75
73 87
74 90
74 87
74 75
74 88
75 88
75 90
76 77
76 79
76 80
76 81
76 82
76 83
76 85
76 86
76 87
76 88
76 90
77 79
77 80
77 81
77 82
77 83
77 85
77 86
77 87
77 88
77 90
79 80
79 81
79 82
79 83
79 85
79 86
79 87
79 88
79 90
80 81
80 82
80 83
80 85
80 86
80 87
80 88
80 90
81 82
81 83
81 85
81 86
81 87
81 88
81 90
82 83
82 85
82 86
82 87
82 88
82 90
83 85
83 86
83 87
83 88
83 90
84 105
84 121
84 137
84 10
84 26
84 42
84 90
84 103
84 91
84 92
84 93
84 94
84 95
84 97
84 98
84 99
84 101
84 102
84 104
84 118
84 134
84 6
84 20
84 34
84 49
85 86
85 87
85 88
85 90
86 87
86 88
86 90
87 88
87 90
88 90
91 106
91 123
91 138
91 11
91 28
91 43
91 104
91 117
91 92
91 93
91 94
91 95
91 97
91 98
91 99
91 101
91 102
91 105
91 119
91 135
91 7
91 21
91 36
91 50
92 107
92 124
92 139
92 12
92 29
92 44
92 105
92 118
92 131
92 93
92 94
92 95
92 97
92 98
92 99
92 101
92 102
92 106
92 121
92 136
92 8
92 22
92 37
93 109
93 125
93 140
93 14
93 30
93 45
93 106
93 119
93 134
93 5
93 94
93 95
93 97
93 98
93 99
93 101
93 102
93 107
93 123
93 137
93 9
93 23
93 38
94 110
94 126
94 141
94 16
94 31
94 47
94 107
94 121
94 135
94 6
94 19
94 95
94 97
94 98
94 99
94 101
94 102
94 109
94 124
94 138
94 10
94 25
94 40
95 112
95 127
95 142
95 17
95 32
95 109
95 123
95 136
95 7
95 20
95 33
95 97
95 98
95 99
95 101
95 102
95 110
95 125
95 139
95 11
95 26
95 41
96 106
96 123
96 138
96 11
96 28
96 43
96 108
96 120
96 132
96 3
96 15
96 27
96 39
96 104
96 118
96 134
96 6
96 20
96 34
96 49
97 113
97 128
97 143
97 18
97 110
97 124
97 137
97 8
97 21
97 34
97 48
97 98
97 99
97 101
97 102
97 112
97 126
97 140
97 12
97 28
97 42
98 114
98 129
98 4
98 112
98 125
98 138
98 9
98 22
98 36
98 49
98 99
98 101
98 102
98 113
98 127
98 141
98 14
98 29
98 43
99 115
99 130
99 113
99 126
99 139
99 10
99 23
99 37
99 50
99 101
99 102
99 114
99 128
99 142
99 16
99 30
99 44
101 116
101 114
101 127
101 140
101 11
101 25
101 38
101 102
101 115
101 129
101 143
101 17
101 31
101 45
102 115
102 128
102 141
102 12
102 26
102 40
102 116
102 130
102 4
102 18
102 32
102 47
103 118
103 135
103 8
103 23
103 40
103 104
103 105
103 106
103 107
103 109
103 110
103 112
103 113
103 114
103 115
103 116
103 117
103 131
103 5
103 19
103 33
103 48
104 119
104 136
104 9
104 25
104 41
104 117
104 105
104 106
104 107
104 109
104 110
104 112
104 113
104 114
104 115
104 116
104 118
104 134
104 6
104 20
104 34
104 49
105 121
105 137
105 10
105 26
105 42
105 118
105 131
105 106
105 107
105 109
105 110
105 112
105 113
105 114
105 115
105 116
105 119
105 135
105 7
105 21
105 36
105 50
106 123
106 138
106 11
106 28
106 43
106 119
106 134
106 5
106 107
106 109
106 110
106 112
106 113
106 114
106 115
106 116
106 121
106 136
106 8
106 22
106 37
107 124
107 139
107 12
107 29
107 44
107 121
107 135
107 6
107 19
107 109
107 110
107 112
107 113
107 114
107 115
107 116
107 123
107 137
107 9
107 23
107 38
108 124
108 139
108 12
108 29
108 44
108 120
108 132
108 3
108 15
108 27
108 39
108 119
108 135
108 7
108 21
108 36
108 50
109 125
109 140
109 14
109 30
109 45
109 123
109 136
109 7
109 20
109 33
109 110
109 112
109 113
109 114
109 115
109 116
109 124
109 138
109 10
109 25
109 40
110 126
110 141
110 16
110 31
110 47
110 124
110 137
110 8
110 21
110 34
110 48
110 112
110 113
110 114
110 115
110 116
110 125
110 139
110 11
110 26
110 41
112 127
112 142
112 17
112 32
112 125
112 138
112 9
112 22
112 36
112 49
112 113
112 114
112 115
112 116
112 126
112 140
112 12
112 28
112 42
113 128
113 143
113 18
113 126
113 139
113 10
113 23
113 37
113 50
113 114
113 115
113 116
113 127
113 141
113 14
113 29
113 43
114 129
114 4
114 127
114 140
114 11
114 25
114 38
114 115
114 116
114 128
114 142
114 16
114 30
114 44
115 130
115 128
115 141
115 12
115 26
115 40
115 116
115 129
115 143
115 17
115 31
115 45
116 129
116 142
116 14
116 28
116 41
116 130
116 4
116 18
116 32
116 47
117 134
117 7
117 22
117 38
117 118
117 119
117 121
117 123
117 124
117 125
117 126
117 127
117 128
117 129
117 130
117 131
117 5
117 19
117 33
117 48
118 135
118 8
118 23
118 40
118 131
118 119
118 121
118 123
118 124
118 125
118 126
118 127
118 128
118 129
118 130
118 134
118 6
118 20
118 34
118 49
119 136
119 9
119 25
119 41
119 134
119 5
119 121
119 123
119 124
119 125
119 126
119 127
119 128
119 129
119 130
119 135
119 7
119 21
119 36
119 50
120 125
120 140
120 14
120 30
120 45
120 132
120 3
120 15
120 27
120 39
120 121
120 136
120 8
120 22
120 37
121 137
121 10
121 26
121 42
121 135
121 6
121 19
121 123
121 124
121 125
121 126
121 127
121 128
121 129
121 130
121 136
121 8
121 22
121 37
123 138
123 11
123 28
123 43
123 136
123 7
123 20
123 33
123 124
123 125
123 126
123 127
123 128
123 129
123 130
123 137
123 9
123 23
123 38
124 139
124 12
124 29
124 44
124 137
124 8
124 21
124 34
124 48
124 125
124 126
124 127
124 128
124 129
124 130
124 138
124 10
124 25
124 40
125 140
125 14
125 30
125 45
125 138
125 9
125 22
125 36
125 49
125 126
125 127
125 128
125 129
125 130
125 139
125 11
125 26
125 41
126 141
126 16
126 31
126 47
126 139
126 10
126 23
126 37
126 50
126 127
126 128
126 129
126 130
126 140
126 12
126 28
126 42
127 142
127 17
127 32
127 140
127 11
127 25
127 38
127 128
127 129
127 130
127 141
127 14
127 29
127 43
128 143
128 18
128 141
128 12
128 26
128 40
128 129
128 130
128 142
128 16
128 30
128 44
129 4
129 142
129 14
129 28
129 41
129 130
129 143
129 17
129 31
129 45
130 143
130 16
130 29
130 42
130 4
130 18
130 32
130 47
131 6
131 21
131 37
131 134
131 135
131 136
131 137
131 138
131 139
131 140
131 141
131 142
131 143
131 4
131 5
131 19
131 33
131 48
132 141
132 16
132 31
132 47
132 3
132 15
132 27
132 39
132 137
132 9
132 23
132 38
134 7
134 22
134 38
134 5
134 135
134 136
134 137
134 138
134 139
134 140
134 141
134 142
134 143
134 4
134 6
134 20
134 34
134 49
135 8
135 23
135 40
135 6
135 19
135 136
135 137
135 138
135 139
135 140
135 141
135 142
135 143
135 4
135 7
135 21
135 36
135 50
136 9
136 25
136 41
136 7
136 20
136 33
136 137
136 138
136 139
136 140
136 141
136 142
136 143
136 4
136 8
136 22
136 37
137 10
137 26
137 42
137 8
137 21
137 34
137 48
137 138
137 139
137 140
137 141
137 142
137 143
137 4
137 9
137 23
137 38
138 11
138 28
138 43
138 9
138 22
138 36
138 49
138 139
138 140
138 141
138 142
138 143
138 4
138 10
138 25
138 40
139 12
139 29
139 44
139 10
139 23
139 37
139 50
139 140
139 141
139 142
139 143
139 4
139 11
139 26
139 41
140 14
140 30
140 45
140 11
140 25
140 38
140 141
140 142
140 143
140 4
140 12
140 28
140 42
141 16
141 31
141 47
141 12
141 26
141 40
141 142
141 143
141 4
141 14
141 29
141 43
142 17
142 32
142 14
142 28
142 41
142 143
142 4
142 16
142 30
142 44
143 18
143 16
143 29
143 42
143 4
143 17
143 31
143 45
3 17
3 32
3 5
3 15
3 27
3 39
3 10
3 25
3 40
4 17
4 30
4 43
4 18
4 32
4 47
5 20
5 36
5 6
5 7
5 8
5 9
5 10
5 11
5 12
5 14
5 16
5 17
5 18
5 19
5 33
5 48
6 21
6 37
6 19
6 7
6 8
6 9
6 10
6 11
6 12
6 14
6 16
6 17
6 18
6 20
6 34
6 49
7 22
7 38
7 20
7 33
7 8
7 9
7 10
7 11
7 12
7 14
7 16
7 17
7 18
7 21
7 36
7 50
8 23
8 40
8 21
8 34
8 48
8 9
8 10
8 11
8 12
8 14
8 16
8 17
8 18
8 22
8 37
9 25
9 41
9 22
9 36
9 49
9 10
9 11
9 12
9 14
9 16
9 17
9 18
9 23
9 38
10 26
10 42
10 23
10 37
10 50
10 11
10 12
10 14
10 16
10 17
10 18
10 25
10 40
11 28
11 43
11 25
11 38
11 12
11 14
11 16
11 17
11 18
11 26
11 41
12 29
12 44
12 26
12 40
12 14
12 16
12 17
12 18
12 28
12 42
14 30
14 45
14 28
14 41
14 16
14 17
14 18
14 29
14 43
15 18
15 19
15 27
15 39
15 26
15 41
16 31
16 47
16 29
16 42
16 17
16 18
16 30
16 44
17 32
17 30
17 43
17 18
17 31
17 45
18 31
18 44
18 32
18 47
19 34
19 50
19 20
19 21
19 22
19 23
19 25
19 26
19 28
19 29
19 30
19 31
19 32
19 33
19 48
20 36
20 33
20 21
20 22
20 23
20 25
20 26
20 28
20 29
20 30
20 31
20 32
20 34
20 49
21 37
21 34
21 48
21 22
21 23
21 25
21 26
21 28
21 29
21 30
21 31
21 32
21 36
21 50
22 38
22 36
22 49
22 23
22 25
22 26
22 28
22 29
22 30
22 31
22 32
22 37
23 40
23 37
23 50
23 25
23 26
23 28
23 29
23 30
23 31
23 32
23 38
25 41
25 38
25 26
25 28
25 29
25 30
25 31
25 32
25 40
26 42
26 40
26 28
26 29
26 30
26 31
26 32
26 41
27 33
27 39
27 28
27 42
28 43
28 41
28 29
28 30
28 31
28 32
28 42
29 44
29 42
29 30
29 31
29 32
29 43
30 45
30 43
30 31
30 32
30 44
31 47
31 44
31 32
31 45
32 45
32 47
33 49
33 34
33 36
33 37
33 38
33 40
33 41
33 42
33 43
33 44
33 45
33 47
33 48
34 50
34 48
34 36
34 37
34 38
34 40
34 41
34 42
34 43
34 44
34 45
34 47
34 49
36 49
36 37
36 38
36 40
36 41
36 42
36 43
36 44
36 45
36 47
36 50
37 50
37 38
37 40
37 41
37 42
37 43
37 44
37 45
37 47
38 40
38 41
38 42
38 43
38 44
38 45
38 47
39 48
39 43
40 41
40 42
40 43
40 44
40 45
40 47
41 42
41 43
41 44
41 45
41 47
42 43
42 44
42 45
42 47
43 44
43 45
43 47
44 45
44 47
45 47
48 49
48 50
49 50
